unsat
(:conflicts            1
 :max-generation       1
 :max-memory           22.12
 :memory               20.80
 :mk-bool-var          173
 :mk-clause            17
 :mk-clause-binary     69
 :num-allocs           2335468
 :num-checks           1
 :quant-instantiations 27
 :rlimit-count         21946
 :time                 0.01)
